\ENCODING=ISO-8859-1
\Problem name: TSP

Minimize
 obj1: 1438.2 y_0,1_#0 + 1518.4 y_0,2_#1 + 1565.2 y_0,3_#2 + 1565 y_0,4_#3
       + 1604.2 y_0,5_#4 + 1623.4 y_0,6_#5 + 1549.7 y_0,7_#6 + 1592.5 y_0,8_#7
       + 1689.8 y_1,2_#8 + 1473.9 y_1,3_#9 + 1503.2 y_1,4_#10
       + 1534.8 y_1,5_#11 + 1564.5 y_1,6_#12 + 1496.4 y_1,7_#13
       + 1472.8 y_1,8_#14 + 1475.6 y_1,9_#15 + 1470.1 y_2,1_#16
       + 26.8 y_2,3_#17 + 299.5 y_2,4_#18 + 299.3 y_2,5_#19 + 338.5 y_2,6_#20
       + 369.9 y_2,7_#21 + 339.1 y_2,8_#22 + 495.5 y_2,9_#23 + 497.5 y_3,1_#24
       + 408.4 y_3,2_#25 + 48 y_3,4_#26 + 235.2 y_3,5_#27 + 280.5 y_3,6_#28
       + 247.8 y_3,7_#29 + 256.2 y_3,8_#30 + 256.2 y_3,9_#31 + 1438.2 y_4,1_#32
       + 1497.7 y_4,2_#33 + 26.8 y_4,3_#34 + 327.1 y_4,5_#35 + 326.9 y_4,6_#36
       + 366.1 y_4,7_#37 + 397.5 y_4,8_#38 + 366.7 y_4,9_#39 + 540.9 y_5,1_#40
       + 525.1 y_5,2_#41 + 436 y_5,3_#42 + 376 y_5,4_#43 + 262.8 y_5,6_#44
       + 308.1 y_5,7_#45 + 275.4 y_5,8_#46 + 283.8 y_5,9_#47 + 342.2 y_6,1_#48
       + 1518.4 y_6,2_#49 + 1616.4 y_6,3_#50 + 306 y_6,4_#51 + 386.2 y_6,5_#52
       + 114.3 y_6,7_#53 + 153.5 y_6,8_#54 + 184.9 y_6,9_#55 + 351.1 y_7,1_#56
       + 328.3 y_7,2_#57 + 330.5 y_7,3_#58 + 558.4 y_7,4_#59 + 498.4 y_7,5_#60
       + 341.7 y_7,6_#61 + 322.9 y_7,8_#62 + 290.2 y_7,9_#63 + 240 y_8,1_#64
       + 226.4 y_8,2_#65 + 1565.2 y_8,3_#66 + 1570.8 y_8,4_#67
       + 260.4 y_8,5_#68 + 340.6 y_8,6_#69 + 98.9 y_8,7_#70 + 39.1 y_8,9_#71
       + 0.5 _e_0#82 + 0.5 _e_1#83 + 0.5 _e_2#84 + 0.5 _e_3#85 + 0.5 _e_4#86
       + 0.5 _e_5#87 + 0.5 _e_6#88 + 0.5 _e_7#89 + 0.5 _e_8#90 + 0.5 t_0#91
       + 0.5 t_1#92 + 0.5 t_2#93 + 0.5 t_3#94 + 0.5 t_4#95 + 0.5 t_5#96
       + 0.5 t_6#97 + 0.5 t_7#98 + 0.5 t_8#99
Subject To
 c1:   y_0,1_#0 + y_0,2_#1 + y_0,3_#2 + y_0,4_#3 + y_0,5_#4 + y_0,6_#5
       + y_0,7_#6 + y_0,8_#7  = 1
 c2:   y_1,2_#8 + y_1,3_#9 + y_1,4_#10 + y_1,5_#11 + y_1,6_#12 + y_1,7_#13
       + y_1,8_#14 + y_1,9_#15  = 1
 c3:   y_2,1_#16 + y_2,3_#17 + y_2,4_#18 + y_2,5_#19 + y_2,6_#20 + y_2,7_#21
       + y_2,8_#22 + y_2,9_#23  = 1
 c4:   y_3,1_#24 + y_3,2_#25 + y_3,4_#26 + y_3,5_#27 + y_3,6_#28 + y_3,7_#29
       + y_3,8_#30 + y_3,9_#31  = 1
 c5:   y_4,1_#32 + y_4,2_#33 + y_4,3_#34 + y_4,5_#35 + y_4,6_#36 + y_4,7_#37
       + y_4,8_#38 + y_4,9_#39  = 1
 c6:   y_5,1_#40 + y_5,2_#41 + y_5,3_#42 + y_5,4_#43 + y_5,6_#44 + y_5,7_#45
       + y_5,8_#46 + y_5,9_#47  = 1
 c7:   y_6,1_#48 + y_6,2_#49 + y_6,3_#50 + y_6,4_#51 + y_6,5_#52 + y_6,7_#53
       + y_6,8_#54 + y_6,9_#55  = 1
 c8:   y_7,1_#56 + y_7,2_#57 + y_7,3_#58 + y_7,4_#59 + y_7,5_#60 + y_7,6_#61
       + y_7,8_#62 + y_7,9_#63  = 1
 c9:   y_8,1_#64 + y_8,2_#65 + y_8,3_#66 + y_8,4_#67 + y_8,5_#68 + y_8,6_#69
       + y_8,7_#70 + y_8,9_#71  = 1
 c10:  y_0,1_#0 + y_2,1_#16 + y_3,1_#24 + y_4,1_#32 + y_5,1_#40 + y_6,1_#48
       + y_7,1_#56 + y_8,1_#64  = 1
 c11:  y_0,2_#1 + y_1,2_#8 + y_3,2_#25 + y_4,2_#33 + y_5,2_#41 + y_6,2_#49
       + y_7,2_#57 + y_8,2_#65  = 1
 c12:  y_0,3_#2 + y_1,3_#9 + y_2,3_#17 + y_4,3_#34 + y_5,3_#42 + y_6,3_#50
       + y_7,3_#58 + y_8,3_#66  = 1
 c13:  y_0,4_#3 + y_1,4_#10 + y_2,4_#18 + y_3,4_#26 + y_5,4_#43 + y_6,4_#51
       + y_7,4_#59 + y_8,4_#67  = 1
 c14:  y_0,5_#4 + y_1,5_#11 + y_2,5_#19 + y_3,5_#27 + y_4,5_#35 + y_6,5_#52
       + y_7,5_#60 + y_8,5_#68  = 1
 c15:  y_0,6_#5 + y_1,6_#12 + y_2,6_#20 + y_3,6_#28 + y_4,6_#36 + y_5,6_#44
       + y_7,6_#61 + y_8,6_#69  = 1
 c16:  y_0,7_#6 + y_1,7_#13 + y_2,7_#21 + y_3,7_#29 + y_4,7_#37 + y_5,7_#45
       + y_6,7_#53 + y_8,7_#70  = 1
 c17:  y_0,8_#7 + y_1,8_#14 + y_2,8_#22 + y_3,8_#30 + y_4,8_#38 + y_5,8_#46
       + y_6,8_#54 + y_7,8_#62  = 1
 c18:  y_1,9_#15 + y_2,9_#23 + y_3,9_#31 + y_4,9_#39 + y_5,9_#47 + y_6,9_#55
       + y_7,9_#63 + y_8,9_#71  = 1
 c19:  50000 y_0,1_#0 + w_0#72 - w_1#73 <= 48561.8
 c20:  50000 y_0,2_#1 + w_0#72 - w_2#74 <= 48481.6
 c21:  50000 y_0,3_#2 + w_0#72 - w_3#75 <= 48434.8
 c22:  50000 y_0,4_#3 + w_0#72 - w_4#76 <= 48435
 c23:  50000 y_0,5_#4 + w_0#72 - w_5#77 <= 48395.8
 c24:  50000 y_0,6_#5 + w_0#72 - w_6#78 <= 48376.6
 c25:  50000 y_0,7_#6 + w_0#72 - w_7#79 <= 48450.3
 c26:  50000 y_0,8_#7 + w_0#72 - w_8#80 <= 48407.5
 c27:  50000 y_1,2_#8 + w_1#73 - w_2#74 <= 47036.7
 c28:  50000 y_1,3_#9 + w_1#73 - w_3#75 <= 47252.6
 c29:  50000 y_1,4_#10 + w_1#73 - w_4#76 <= 47223.3
 c30:  50000 y_1,5_#11 + w_1#73 - w_5#77 <= 47191.7
 c31:  50000 y_1,6_#12 + w_1#73 - w_6#78 <= 47162
 c32:  50000 y_1,7_#13 + w_1#73 - w_7#79 <= 47230.1
 c33:  50000 y_1,8_#14 + w_1#73 - w_8#80 <= 47253.7
 c34:  50000 y_1,9_#15 + w_1#73 - w_9#81 <= 47250.9
 c35:  50000 y_2,1_#16 - w_1#73 + w_2#74 <= 47908.7
 c36:  50000 y_2,3_#17 + w_2#74 - w_3#75 <= 49352
 c37:  50000 y_2,4_#18 + w_2#74 - w_4#76 <= 49079.3
 c38:  50000 y_2,5_#19 + w_2#74 - w_5#77 <= 49079.5
 c39:  50000 y_2,6_#20 + w_2#74 - w_6#78 <= 49040.3
 c40:  50000 y_2,7_#21 + w_2#74 - w_7#79 <= 49008.9
 c41:  50000 y_2,8_#22 + w_2#74 - w_8#80 <= 49039.7
 c42:  50000 y_2,9_#23 + w_2#74 - w_9#81 <= 48883.3
 c43:  50000 y_3,1_#24 - w_1#73 + w_3#75 <= 48028.9
 c44:  50000 y_3,2_#25 - w_2#74 + w_3#75 <= 48118
 c45:  50000 y_3,4_#26 + w_3#75 - w_4#76 <= 48478.4
 c46:  50000 y_3,5_#27 + w_3#75 - w_5#77 <= 48291.2
 c47:  50000 y_3,6_#28 + w_3#75 - w_6#78 <= 48245.9
 c48:  50000 y_3,7_#29 + w_3#75 - w_7#79 <= 48278.6
 c49:  50000 y_3,8_#30 + w_3#75 - w_8#80 <= 48270.2
 c50:  50000 y_3,9_#31 + w_3#75 - w_9#81 <= 48270.2
 c51:  50000 y_4,1_#32 - w_1#73 + w_4#76 <= 47156.6
 c52:  50000 y_4,2_#33 - w_2#74 + w_4#76 <= 47097.1
 c53:  50000 y_4,3_#34 - w_3#75 + w_4#76 <= 48568
 c54:  50000 y_4,5_#35 + w_4#76 - w_5#77 <= 48267.7
 c55:  50000 y_4,6_#36 + w_4#76 - w_6#78 <= 48267.9
 c56:  50000 y_4,7_#37 + w_4#76 - w_7#79 <= 48228.7
 c57:  50000 y_4,8_#38 + w_4#76 - w_8#80 <= 48197.3
 c58:  50000 y_4,9_#39 + w_4#76 - w_9#81 <= 48228.1
 c59:  50000 y_5,1_#40 - w_1#73 + w_5#77 <= 47929.7
 c60:  50000 y_5,2_#41 - w_2#74 + w_5#77 <= 47945.5
 c61:  50000 y_5,3_#42 - w_3#75 + w_5#77 <= 48034.6
 c62:  50000 y_5,4_#43 - w_4#76 + w_5#77 <= 48094.6
 c63:  50000 y_5,6_#44 + w_5#77 - w_6#78 <= 48207.8
 c64:  50000 y_5,7_#45 + w_5#77 - w_7#79 <= 48162.5
 c65:  50000 y_5,8_#46 + w_5#77 - w_8#80 <= 48195.2
 c66:  50000 y_5,9_#47 + w_5#77 - w_9#81 <= 48186.8
 c67:  50000 y_6,1_#48 - w_1#73 + w_6#78 <= 49032.1
 c68:  50000 y_6,2_#49 - w_2#74 + w_6#78 <= 47855.9
 c69:  50000 y_6,3_#50 - w_3#75 + w_6#78 <= 47757.9
 c70:  50000 y_6,4_#51 - w_4#76 + w_6#78 <= 49068.3
 c71:  50000 y_6,5_#52 - w_5#77 + w_6#78 <= 48988.1
 c72:  50000 y_6,7_#53 + w_6#78 - w_7#79 <= 49260
 c73:  50000 y_6,8_#54 + w_6#78 - w_8#80 <= 49220.8
 c74:  50000 y_6,9_#55 + w_6#78 - w_9#81 <= 49189.4
 c75:  50000 y_7,1_#56 - w_1#73 + w_7#79 <= 48106.3
 c76:  50000 y_7,2_#57 - w_2#74 + w_7#79 <= 48129.1
 c77:  50000 y_7,3_#58 - w_3#75 + w_7#79 <= 48126.9
 c78:  50000 y_7,4_#59 - w_4#76 + w_7#79 <= 47899
 c79:  50000 y_7,5_#60 - w_5#77 + w_7#79 <= 47959
 c80:  50000 y_7,6_#61 - w_6#78 + w_7#79 <= 48115.7
 c81:  50000 y_7,8_#62 + w_7#79 - w_8#80 <= 48134.5
 c82:  50000 y_7,9_#63 + w_7#79 - w_9#81 <= 48167.2
 c83:  50000 y_8,1_#64 - w_1#73 + w_8#80 <= 49270.5
 c84:  50000 y_8,2_#65 - w_2#74 + w_8#80 <= 49284.1
 c85:  50000 y_8,3_#66 - w_3#75 + w_8#80 <= 47945.3
 c86:  50000 y_8,4_#67 - w_4#76 + w_8#80 <= 47939.7
 c87:  50000 y_8,5_#68 - w_5#77 + w_8#80 <= 49250.1
 c88:  50000 y_8,6_#69 - w_6#78 + w_8#80 <= 49169.9
 c89:  50000 y_8,7_#70 - w_7#79 + w_8#80 <= 49411.6
 c90:  50000 y_8,9_#71 + w_8#80 - w_9#81 <= 49471.4
 c91:  w_0#72 + _e_0#82 >= 0
 c92:  w_1#73 + _e_1#83 >= 0
 c93:  w_2#74 + _e_2#84 >= 0
 c94:  w_3#75 + _e_3#85 >= 59.25
 c95:  w_4#76 + _e_4#86 >= 59.25
 c96:  w_5#77 + _e_5#87 >= 0
 c97:  w_6#78 + _e_6#88 >= 0
 c98:  w_7#79 + _e_7#89 >= 59.25
 c99:  w_8#80 + _e_8#90 >= 59.25
 c100: - w_0#72 + t_0#91 >= -600000
 c101: - w_1#73 + t_1#92 >= -600000
 c102: - w_2#74 + t_2#93 >= -600000
 c103: - w_3#75 + t_3#94 >= -539.25
 c104: - w_4#76 + t_4#95 >= -539.25
 c105: - w_5#77 + t_5#96 >= -600000
 c106: - w_6#78 + t_6#97 >= -600000
 c107: - w_7#79 + t_7#98 >= -479.25
 c108: - w_8#80 + t_8#99 >= -479.25
Bounds
 0 <= y_0,1_#0 <= 1
 0 <= y_0,2_#1 <= 1
 0 <= y_0,3_#2 <= 1
 0 <= y_0,4_#3 <= 1
 0 <= y_0,5_#4 <= 1
 0 <= y_0,6_#5 <= 1
 0 <= y_0,7_#6 <= 1
 0 <= y_0,8_#7 <= 1
 0 <= y_1,2_#8 <= 1
 0 <= y_1,3_#9 <= 1
 0 <= y_1,4_#10 <= 1
 0 <= y_1,5_#11 <= 1
 0 <= y_1,6_#12 <= 1
 0 <= y_1,7_#13 <= 1
 0 <= y_1,8_#14 <= 1
 0 <= y_1,9_#15 <= 1
 0 <= y_2,1_#16 <= 1
 0 <= y_2,3_#17 <= 1
 0 <= y_2,4_#18 <= 1
 0 <= y_2,5_#19 <= 1
 0 <= y_2,6_#20 <= 1
 0 <= y_2,7_#21 <= 1
 0 <= y_2,8_#22 <= 1
 0 <= y_2,9_#23 <= 1
 0 <= y_3,1_#24 <= 1
 0 <= y_3,2_#25 <= 1
 0 <= y_3,4_#26 <= 1
 0 <= y_3,5_#27 <= 1
 0 <= y_3,6_#28 <= 1
 0 <= y_3,7_#29 <= 1
 0 <= y_3,8_#30 <= 1
 0 <= y_3,9_#31 <= 1
 0 <= y_4,1_#32 <= 1
 0 <= y_4,2_#33 <= 1
 0 <= y_4,3_#34 <= 1
 0 <= y_4,5_#35 <= 1
 0 <= y_4,6_#36 <= 1
 0 <= y_4,7_#37 <= 1
 0 <= y_4,8_#38 <= 1
 0 <= y_4,9_#39 <= 1
 0 <= y_5,1_#40 <= 1
 0 <= y_5,2_#41 <= 1
 0 <= y_5,3_#42 <= 1
 0 <= y_5,4_#43 <= 1
 0 <= y_5,6_#44 <= 1
 0 <= y_5,7_#45 <= 1
 0 <= y_5,8_#46 <= 1
 0 <= y_5,9_#47 <= 1
 0 <= y_6,1_#48 <= 1
 0 <= y_6,2_#49 <= 1
 0 <= y_6,3_#50 <= 1
 0 <= y_6,4_#51 <= 1
 0 <= y_6,5_#52 <= 1
 0 <= y_6,7_#53 <= 1
 0 <= y_6,8_#54 <= 1
 0 <= y_6,9_#55 <= 1
 0 <= y_7,1_#56 <= 1
 0 <= y_7,2_#57 <= 1
 0 <= y_7,3_#58 <= 1
 0 <= y_7,4_#59 <= 1
 0 <= y_7,5_#60 <= 1
 0 <= y_7,6_#61 <= 1
 0 <= y_7,8_#62 <= 1
 0 <= y_7,9_#63 <= 1
 0 <= y_8,1_#64 <= 1
 0 <= y_8,2_#65 <= 1
 0 <= y_8,3_#66 <= 1
 0 <= y_8,4_#67 <= 1
 0 <= y_8,5_#68 <= 1
 0 <= y_8,6_#69 <= 1
 0 <= y_8,7_#70 <= 1
 0 <= y_8,9_#71 <= 1
Binaries
 y_0,1_#0  y_0,2_#1  y_0,3_#2  y_0,4_#3  y_0,5_#4  y_0,6_#5  y_0,7_#6 
 y_0,8_#7  y_1,2_#8  y_1,3_#9  y_1,4_#10  y_1,5_#11  y_1,6_#12  y_1,7_#13 
 y_1,8_#14  y_1,9_#15  y_2,1_#16  y_2,3_#17  y_2,4_#18  y_2,5_#19  y_2,6_#20 
 y_2,7_#21  y_2,8_#22  y_2,9_#23  y_3,1_#24  y_3,2_#25  y_3,4_#26  y_3,5_#27 
 y_3,6_#28  y_3,7_#29  y_3,8_#30  y_3,9_#31  y_4,1_#32  y_4,2_#33  y_4,3_#34 
 y_4,5_#35  y_4,6_#36  y_4,7_#37  y_4,8_#38  y_4,9_#39  y_5,1_#40  y_5,2_#41 
 y_5,3_#42  y_5,4_#43  y_5,6_#44  y_5,7_#45  y_5,8_#46  y_5,9_#47  y_6,1_#48 
 y_6,2_#49  y_6,3_#50  y_6,4_#51  y_6,5_#52  y_6,7_#53  y_6,8_#54  y_6,9_#55 
 y_7,1_#56  y_7,2_#57  y_7,3_#58  y_7,4_#59  y_7,5_#60  y_7,6_#61  y_7,8_#62 
 y_7,9_#63  y_8,1_#64  y_8,2_#65  y_8,3_#66  y_8,4_#67  y_8,5_#68  y_8,6_#69 
 y_8,7_#70  y_8,9_#71 
End
